Tried aggregator 2 times.
MIP Presolve eliminated 2 rows and 3 columns.
Aggregator did 1 substitutions.
Reduced MIP has 26248 rows, 34996 columns, and 87490 nonzeros.
Reduced MIP has 8749 binaries, 0 generals, 0 SOSs, and 0 indicators.
Presolve time = 0.07 sec. (55.56 ticks)
Found incumbent of value 823814.890862 after 0.16 sec. (116.52 ticks)
Probing fixed 0 vars, tightened 730 bounds.
Probing time = 0.03 sec. (3.95 ticks)
Tried aggregator 1 time.
MIP Presolve modified 1460 coefficients.
Reduced MIP has 26248 rows, 34996 columns, and 87490 nonzeros.
Reduced MIP has 8749 binaries, 0 generals, 0 SOSs, and 0 indicators.
Presolve time = 0.07 sec. (45.84 ticks)
Probing time = 0.01 sec. (2.86 ticks)
MIP emphasis: balance optimality and feasibility.
MIP search method: dynamic search.
Parallel mode: deterministic, using up to 20 threads.
Root relaxation solution time = 0.38 sec. (435.20 ticks)

        Nodes                                         Cuts/
   Node  Left     Objective  IInf  Best Integer    Best Bound    ItCnt     Gap

*     0+    0                       823814.8909   2.29731e+09              --- 
*     0+    0                       865718.1301   2.29731e+09              --- 
      0     0   6.62441e+08   131   865718.1301   6.62441e+08     4205     --- 
*     0+    0                       6.55077e+08   6.62441e+08             1.12%
      0     0   6.62162e+08   120   6.55077e+08      Cuts: 65     4234    1.08%
*     0+    0                       6.55265e+08   6.62162e+08             1.05%
*     0+    0                       6.55366e+08   6.62162e+08             1.04%
      0     2   6.62162e+08   120   6.55366e+08   6.62162e+08     4234    1.04%
Elapsed time = 2.23 sec. (1612.54 ticks, tree = 0.01 MB, solutions = 5)
*     4+    4                       6.55419e+08   6.62161e+08             1.03%
      4     6   6.62065e+08   119   6.55419e+08   6.62161e+08     4241    1.03%
      5     7   6.61974e+08   118   6.55419e+08   6.62161e+08     4243    1.03%
      6     8   6.62065e+08   120   6.55419e+08   6.62161e+08     4245    1.03%
      7     9   6.61974e+08   119   6.55419e+08   6.62161e+08     4247    1.03%
      8    10   6.61952e+08   118   6.55419e+08   6.62161e+08     4250    1.03%
      9    11   6.61735e+08   117   6.55419e+08   6.62161e+08     4255    1.03%
     10    12   6.62068e+08   118   6.55419e+08   6.62160e+08     4257    1.03%
     11    13   6.62064e+08   121   6.55419e+08   6.62160e+08     4259    1.03%
     12    14   6.61734e+08   118   6.55419e+08   6.62160e+08     4261    1.03%
*    33+   33                       6.55436e+08   6.62160e+08             1.03%
    339   341   6.60865e+08   109   6.55436e+08   6.62160e+08     4933    1.03%
Elapsed time = 3.61 sec. (2694.50 ticks, tree = 0.01 MB, solutions = 7)
   2213  2215   6.60192e+08    96   6.55436e+08   6.62160e+08     9824    1.03%
   2214  2216   6.58988e+08    77   6.55436e+08   6.62160e+08     9826    1.03%
   2215  2217   6.58816e+08    82   6.55436e+08   6.62160e+08     9833    1.03%
   2216  2218   6.59938e+08    89   6.55436e+08   6.62160e+08     9834    1.03%
   2218  2220   6.59016e+08    78   6.55436e+08   6.62160e+08     9837    1.03%
   2219  2221   6.59153e+08    81   6.55436e+08   6.62160e+08     9840    1.03%
   2220  2222   6.59066e+08    79   6.55436e+08   6.62160e+08     9841    1.03%
   2221  2223   6.58786e+08    78   6.55436e+08   6.62160e+08     9842    1.03%
   2223  2225   6.59336e+08    83   6.55436e+08   6.62160e+08     9844    1.03%
   2224  2226   6.58947e+08    76   6.55436e+08   6.62160e+08     9845    1.03%
Elapsed time = 5.96 sec. (3652.10 ticks, tree = 10.45 MB, solutions = 7)
*  2373+ 2373                       6.55495e+08   6.62160e+08             1.02%
*  2935+ 2935                       6.55533e+08   6.62160e+08             1.01%
*  2935+ 2935                       6.55568e+08   6.62160e+08             1.01%
*  3012+ 3012                       6.55679e+08   6.62160e+08             0.99%
*  3212+ 3212                       6.55749e+08   6.62160e+08             0.98%
*  3251+ 3251                       6.55910e+08   6.62160e+08             0.95%
   3797  3799   6.58274e+08    69   6.55910e+08   6.62160e+08    13684    0.95%
   3800  3802   6.57489e+08    62   6.55910e+08   6.62160e+08    13694    0.95%
   3806  3808   6.57114e+08    63   6.55910e+08   6.62160e+08    13709    0.95%
   3811  3813   6.56988e+08    63   6.55910e+08   6.62160e+08    13728    0.95%
   3812  3814   6.59292e+08    83   6.55910e+08   6.62160e+08    13734    0.95%
   3814  3816   6.57438e+08    64   6.55910e+08   6.62160e+08    13742    0.95%
   3816  3818   6.59402e+08    81   6.55910e+08   6.62160e+08    13750    0.95%
   3817  3819   6.58114e+08    67   6.55910e+08   6.62160e+08    13751    0.95%
   3820  3822   6.58000e+08    63   6.55910e+08   6.62160e+08    13761    0.95%
   3822  3824   6.57985e+08    71   6.55910e+08   6.62160e+08    13767    0.95%
Elapsed time = 7.87 sec. (4622.28 ticks, tree = 21.73 MB, solutions = 21)
*  4828+ 4828                       6.55942e+08   6.62160e+08             0.95%
*  4828+ 4828                       6.56030e+08   6.62160e+08             0.93%
*  4828+ 4828                       6.56048e+08   6.62160e+08             0.93%
   4828  4830   6.58595e+08    72   6.56048e+08   6.62160e+08    16695    0.93%
*  4829+ 4829                       6.56178e+08   6.62160e+08             0.91%
*  4829+ 4829                       6.56190e+08   6.62160e+08             0.91%
*  4829+ 4829                       6.56209e+08   6.62160e+08             0.91%
*  4829+ 4829                       6.56343e+08   6.62160e+08             0.89%
   4829  4831   6.58869e+08    74   6.56343e+08   6.62160e+08    16696    0.89%
   4830  4832   6.57000e+08    55   6.56343e+08   6.62160e+08    16704    0.89%
   4831  4833   6.57607e+08    61   6.56343e+08   6.62160e+08    16705    0.89%
   4832  4834   6.58435e+08    69   6.56343e+08   6.62160e+08    16706    0.89%
   4833  4835   6.57211e+08    58   6.56343e+08   6.62160e+08    16713    0.89%
   4834  4836   6.56643e+08    58   6.56343e+08   6.62160e+08    16719    0.89%
   4835  4837   6.57711e+08    61   6.56343e+08   6.62160e+08    16720    0.89%
   4836  4838   6.57554e+08    54   6.56343e+08   6.62160e+08    16721    0.89%
   4837  4839   6.56590e+08    53   6.56343e+08   6.62160e+08    16729    0.89%
Elapsed time = 13.02 sec. (7474.91 ticks, tree = 56.58 MB, solutions = 21)
*  4848+ 3229                       6.56380e+08   6.62160e+08             0.88%
*  4848+ 2152                       6.56380e+08   6.62160e+08             0.88%
   4848  2153   6.62162e+08   123   6.56380e+08   6.62159e+08    20887    0.88%
   4849  2154   6.62132e+08   122   6.56380e+08   6.62159e+08    20891    0.88%
   4850  2155   6.62102e+08   121   6.56380e+08   6.62132e+08    20893    0.88%
   4851  2156   6.61581e+08   122   6.56380e+08   6.62132e+08    20899    0.88%
   4852  2157   6.61550e+08   121   6.56380e+08   6.62132e+08    20901    0.88%
   4853  2157   6.62071e+08   120   6.56380e+08   6.62101e+08    20904    0.87%
   4854  2158   6.61520e+08   120   6.56380e+08   6.62101e+08    20907    0.87%
   4855  2158   6.60993e+08   121   6.56380e+08   6.62101e+08    20914    0.87%
   4856  2159   6.60963e+08   120   6.56380e+08   6.62101e+08    20917    0.87%
   4857  2159   6.62043e+08   120   6.56380e+08   6.62043e+08    20918    0.86%
Elapsed time = 16.93 sec. (12205.08 ticks, tree = 25.52 MB, solutions = 68)
   4901  2188   6.59846e+08   117   6.56380e+08   6.61968e+08    21022    0.85%
   4902  2189   6.59820e+08   118   6.56380e+08   6.61968e+08    21031    0.85%
   4903  2189   6.59305e+08   117   6.56380e+08   6.61968e+08    21040    0.85%
   4922  2200   6.61953e+08   118   6.56380e+08   6.61953e+08    21090    0.85%
   4923  2201   6.61401e+08   118   6.56380e+08   6.61953e+08    21091    0.85%
   4924  2202   6.60844e+08   118   6.56380e+08   6.61953e+08    21092    0.85%
   4925  2202   6.60861e+08   118   6.56380e+08   6.61953e+08    21093    0.85%
   4926  2203   6.60304e+08   118   6.56380e+08   6.61953e+08    21094    0.85%
   4927  2204   6.60347e+08   117   6.56380e+08   6.61953e+08    21095    0.85%
   4928  2204   6.60330e+08   117   6.56380e+08   6.61953e+08    21096    0.85%
Elapsed time = 18.34 sec. (13406.59 ticks, tree = 25.21 MB, solutions = 68)
*  4938+ 1500                       6.56394e+08   6.61953e+08             0.85%
   5002  1538   6.61926e+08   115   6.56394e+08   6.61926e+08    21191    0.84%
   5003  1538   6.61375e+08   115   6.56394e+08   6.61926e+08    21192    0.84%
   5004  1539   6.60817e+08   115   6.56394e+08   6.61926e+08    21193    0.84%
   5005  1540   6.60834e+08   115   6.56394e+08   6.61926e+08    21194    0.84%
   5006  1540   6.60277e+08   115   6.56394e+08   6.61926e+08    21195    0.84%
   5007  1541   6.60320e+08   114   6.56394e+08   6.61926e+08    21196    0.84%
   5008  1542   6.60303e+08   114   6.56394e+08   6.61926e+08    21197    0.84%
   5009  1542   6.59763e+08   114   6.56394e+08   6.61926e+08    21198    0.84%
   5010  1543   6.60372e+08   116   6.56394e+08   6.61926e+08    21199    0.84%
   5011  1544   6.59874e+08   115   6.56394e+08   6.61926e+08    21200    0.84%
Elapsed time = 19.95 sec. (14424.49 ticks, tree = 16.39 MB, solutions = 69)
   5082  1584   6.61917e+08   114   6.56394e+08   6.61917e+08    21271    0.84%
   5083  1585   6.61366e+08   114   6.56394e+08   6.61917e+08    21272    0.84%
   5084  1585   6.60809e+08   114   6.56394e+08   6.61917e+08    21273    0.84%
   5085  1586   6.60825e+08   114   6.56394e+08   6.61917e+08    21274    0.84%
   5086  1586   6.60268e+08   114   6.56394e+08   6.61917e+08    21275    0.84%
   5087  1586   6.60311e+08   113   6.56394e+08   6.61917e+08    21276    0.84%
   5088  1587   6.60294e+08   113   6.56394e+08   6.61917e+08    21277    0.84%
   5089  1588   6.59754e+08   113   6.56394e+08   6.61917e+08    21278    0.84%
   5090  1588   6.60363e+08   115   6.56394e+08   6.61917e+08    21279    0.84%
   5091  1589   6.59865e+08   114   6.56394e+08   6.61917e+08    21280    0.84%
Elapsed time = 21.33 sec. (15443.11 ticks, tree = 15.97 MB, solutions = 69)
   5563  1863   6.60013e+08   106   6.56394e+08   6.61893e+08    21871    0.84%
   5564  1864   6.59996e+08   106   6.56394e+08   6.61893e+08    21872    0.84%
   5565  1865   6.59456e+08   106   6.56394e+08   6.61893e+08    21873    0.84%
   5571  1869   6.59434e+08   105   6.56394e+08   6.61893e+08    21879    0.84%
   5573  1870   6.58893e+08   105   6.56394e+08   6.61893e+08    21881    0.84%
   5578  1872   6.61630e+08   106   6.56394e+08   6.61893e+08    21886    0.84%
   5579  1873   6.61079e+08   106   6.56394e+08   6.61893e+08    21887    0.84%
   5580  1874   6.60522e+08   106   6.56394e+08   6.61893e+08    21888    0.84%
   5581  1874   6.60539e+08   106   6.56394e+08   6.61893e+08    21889    0.84%
   5582  1875   6.59982e+08   106   6.56394e+08   6.61893e+08    21890    0.84%
Elapsed time = 22.98 sec. (16407.32 ticks, tree = 13.66 MB, solutions = 69)
   6630  2482   6.60980e+08    88   6.56394e+08   6.61893e+08    23177    0.84%
   6631  2483   6.60429e+08    88   6.56394e+08   6.61893e+08    23178    0.84%
   6632  2484   6.59872e+08    88   6.56394e+08   6.61893e+08    23179    0.84%
   6633  2484   6.59888e+08    88   6.56394e+08   6.61893e+08    23180    0.84%
   6634  2485   6.59331e+08    88   6.56394e+08   6.61893e+08    23181    0.84%
   6635  2486   6.59362e+08    88   6.56394e+08   6.61893e+08    23182    0.84%
   6636  2486   6.59346e+08    88   6.56394e+08   6.61893e+08    23183    0.84%
   6637  2487   6.58805e+08    88   6.56394e+08   6.61893e+08    23184    0.84%
   6638  2488   6.59378e+08    90   6.56394e+08   6.61893e+08    23185    0.84%
   9727  4756   6.56464e+08    43   6.56394e+08   6.61893e+08    26897    0.84%
Elapsed time = 31.62 sec. (20235.27 ticks, tree = 27.03 MB, solutions = 69)
* 12600+ 7436                       6.56533e+08   6.61893e+08             0.82%
* 12800+ 7629                       6.56634e+08   6.61893e+08             0.80%
* 18777+13238                       6.56669e+08   6.61835e+08             0.79%
* 18777+13238                       6.56762e+08   6.61835e+08             0.77%
  18777 13240   6.59106e+08    57   6.56762e+08   6.61835e+08    38362    0.77%
  18778 13241   6.57951e+08    26   6.56762e+08   6.61835e+08    38364    0.77%
  18779 13242   6.57089e+08    16   6.56762e+08   6.61835e+08    38365    0.77%
  18780 13243   6.57450e+08    20   6.56762e+08   6.61835e+08    38366    0.77%
  18781 13244   6.61507e+08   103   6.56762e+08   6.61835e+08    38368    0.77%
  18782 13245   6.61722e+08   116   6.56762e+08   6.61835e+08    38369    0.77%
  18783 13246   6.61422e+08   104   6.56762e+08   6.61835e+08    38370    0.77%
  18784 13247   6.59773e+08    64   6.56762e+08   6.61835e+08    38371    0.77%
  18785 13248   6.61392e+08   113   6.56762e+08   6.61835e+08    38378    0.77%
  18786 13249   6.60254e+08    70   6.56762e+08   6.61835e+08    38379    0.77%
Elapsed time = 39.48 sec. (24364.51 ticks, tree = 110.29 MB, solutions = 71)
* 25818+20010                       6.56823e+08   6.61645e+08             0.73%
* 25818+20010                       6.56917e+08   6.61645e+08             0.72%
  32492 26370   6.61527e+08   108   6.56917e+08   6.61555e+08    55261    0.71%
  32502 26380   6.60824e+08    89   6.56917e+08   6.61555e+08    55272    0.71%
  32509 26387   6.60386e+08    85   6.56917e+08   6.61555e+08    55285    0.71%
  32512 26390   6.61518e+08   108   6.56917e+08   6.61555e+08    55289    0.71%
  32522 26400   6.60824e+08    89   6.56917e+08   6.61555e+08    55300    0.71%
  32523 26401   6.60325e+08    74   6.56917e+08   6.61555e+08    55301    0.71%
  32524 26402   6.59526e+08    63   6.56917e+08   6.61555e+08    55302    0.71%
  32525 26403   6.59433e+08    66   6.56917e+08   6.61555e+08    55303    0.71%
  32526 26404   6.59450e+08    62   6.56917e+08   6.61555e+08    55304    0.71%
  32527 26405   6.58919e+08    56   6.56917e+08   6.61555e+08    55306    0.71%
Elapsed time = 46.66 sec. (28183.18 ticks, tree = 265.27 MB, solutions = 75)
* 42617+36493                       6.56954e+08   6.61530e+08             0.70%
  44552 38321   6.61331e+08   104   6.56954e+08   6.61523e+08    70182    0.70%
  44572 38341   6.61318e+08   105   6.56954e+08   6.61523e+08    70207    0.70%
  44592 38361   6.61283e+08   104   6.56954e+08   6.61523e+08    70239    0.70%
  44612 38381   6.61282e+08   104   6.56954e+08   6.61523e+08    70265    0.70%
  44632 38401   6.61282e+08   104   6.56954e+08   6.61523e+08    70290    0.70%
  44652 38421   6.61281e+08   104   6.56954e+08   6.61523e+08    70311    0.70%
  44656 38425   6.61448e+08   110   6.56954e+08   6.61523e+08    70315    0.70%
  44672 38441   6.61273e+08   104   6.56954e+08   6.61523e+08    70337    0.70%
  44676 38445   6.61447e+08   110   6.56954e+08   6.61523e+08    70341    0.70%
  44692 38461   6.61236e+08   103   6.56954e+08   6.61523e+08    70358    0.70%
Elapsed time = 53.92 sec. (32033.70 ticks, tree = 402.98 MB, solutions = 77)
* 45311+39078                       6.56972e+08   6.61523e+08             0.69%
* 46503+40236                       6.57082e+08   6.61522e+08             0.68%
* 48989+42409                       6.57082e+08   6.61520e+08             0.68%
  48989 42411   6.59860e+08    84   6.57082e+08   6.61520e+08    75606    0.68%
  48990 42412   6.59620e+08    74   6.57082e+08   6.61520e+08    75607    0.68%
* 48991+42411                       6.57097e+08   6.61520e+08             0.67%
* 48991+42411                       6.57151e+08   6.61520e+08             0.66%
* 48991+42411                       6.57162e+08   6.61520e+08             0.66%
* 48991+42411                       6.57175e+08   6.61520e+08             0.66%
* 48991+42411                       6.57200e+08   6.61520e+08             0.66%
* 48991+42411                       6.57220e+08   6.61520e+08             0.65%
* 48991+42411                       6.57231e+08   6.61520e+08             0.65%
  48991 42413   6.57757e+08    38   6.57231e+08   6.61520e+08    75608    0.65%
* 48992+42412                       6.57236e+08   6.61520e+08             0.65%
  48992 42414   6.58603e+08    54   6.57236e+08   6.61520e+08    75610    0.65%
  48993 42415   6.61169e+08   114   6.57236e+08   6.61520e+08    75611    0.65%
  48994 42416   6.61185e+08   114   6.57236e+08   6.61520e+08    75612    0.65%
  48995 42417   6.60966e+08   118   6.57236e+08   6.61520e+08    75613    0.65%
  48996 42418   6.60770e+08    92   6.57236e+08   6.61520e+08    75615    0.65%
  48997 42419   6.58437e+08    48   6.57236e+08   6.61520e+08    75616    0.65%
  48998 42420   6.61328e+08   103   6.57236e+08   6.61520e+08    75617    0.65%
Elapsed time = 107.21 sec. (69297.85 ticks, tree = 507.83 MB, solutions = 79)
  63272 55976   6.57847e+08    41   6.57236e+08   6.61495e+08    93267    0.65%
  63283 55987   6.58092e+08    45   6.57236e+08   6.61495e+08    93280    0.65%
  63292 55996   6.57847e+08    40   6.57236e+08   6.61495e+08    93290    0.65%
  63299 56003   6.58098e+08    42   6.57236e+08   6.61495e+08    93302    0.65%
  63300 56004   6.58135e+08    44   6.57236e+08   6.61495e+08    93303    0.65%
  63303 56007   6.58078e+08    46   6.57236e+08   6.61495e+08    93308    0.65%
  63312 56016   6.57846e+08    40   6.57236e+08   6.61495e+08    93317    0.65%
  63319 56023   6.58089e+08    42   6.57236e+08   6.61495e+08    93324    0.65%
  63320 56024   6.58098e+08    43   6.57236e+08   6.61495e+08    93325    0.65%
  63323 56027   6.58041e+08    45   6.57236e+08   6.61495e+08    93328    0.65%
Elapsed time = 114.89 sec. (73126.11 ticks, tree = 599.72 MB, solutions = 102)
  77566 70111   6.60800e+08   110   6.57236e+08   6.61478e+08   110408    0.65%
  77586 70131   6.60793e+08   110   6.57236e+08   6.61478e+08   110432    0.65%
  77606 70151   6.60757e+08   109   6.57236e+08   6.61478e+08   110456    0.65%
  77613 70158   6.61152e+08    98   6.57236e+08   6.61478e+08   110464    0.65%
  77626 70171   6.60756e+08   109   6.57236e+08   6.61478e+08   110478    0.65%
  77631 70176   6.60783e+08    98   6.57236e+08   6.61478e+08   110485    0.65%
  77633 70178   6.61151e+08    98   6.57236e+08   6.61478e+08   110487    0.65%
  77641 70186   6.61317e+08    98   6.57236e+08   6.61478e+08   110496    0.65%
  77646 70191   6.60755e+08   109   6.57236e+08   6.61478e+08   110502    0.65%
  77647 70192   6.61302e+08   100   6.57236e+08   6.61478e+08   110503    0.65%
Elapsed time = 122.21 sec. (76942.19 ticks, tree = 785.60 MB, solutions = 102)
  91744 84283   6.59288e+08    65   6.57236e+08   6.61470e+08   127497    0.64%
  91763 84302   6.59879e+08    78   6.57236e+08   6.61470e+08   127516    0.64%
  91764 84303   6.59251e+08    64   6.57236e+08   6.61470e+08   127517    0.64%
  91778 84317   6.58063e+08    54   6.57236e+08   6.61470e+08   127535    0.64%
  91783 84322   6.59871e+08    78   6.57236e+08   6.61470e+08   127542    0.64%
  91784 84323   6.59247e+08    64   6.57236e+08   6.61470e+08   127543    0.64%
  91791 84330   6.58090e+08    53   6.57236e+08   6.61470e+08   127552    0.64%
  91794 84333   6.58852e+08    60   6.57236e+08   6.61470e+08   127555    0.64%
  91798 84337   6.58029e+08    53   6.57236e+08   6.61470e+08   127560    0.64%
  91803 84342   6.59835e+08    77   6.57236e+08   6.61470e+08   127565    0.64%
Elapsed time = 129.95 sec. (80767.84 ticks, tree = 933.32 MB, solutions = 102)
  95828 88364   6.62162e+08   125   6.57236e+08   6.61468e+08   136516    0.64%
  95829 88365   6.62132e+08   124   6.57236e+08   6.61468e+08   136520    0.64%
  95830 88366   6.62101e+08   123   6.57236e+08   6.61468e+08   136522    0.64%
